(set-logic QF_BV)
(declare-fun shift1 () (_ BitVec 189))
(declare-fun shift2 () (_ BitVec 189))
(declare-fun shift3 () (_ BitVec 189))
(define-fun bitsumhelper ((x (_ BitVec 27))) (_ BitVec 27) (bvand x (bvsub x (_ bv1 27))))
(assert (= (_ bv0 27) (bitsumhelper (bitsumhelper (bitsumhelper (bitsumhelper (concat ((_ extract 0 0) shift1) (concat (_ bv0 1) (concat (_ bv0 1) (concat ((_ extract 21 21) shift1) (concat ((_ extract 28 28) shift1) (concat ((_ extract 35 35) shift1) (concat ((_ extract 42 42) shift1) (concat ((_ extract 49 49) shift1) (concat ((_ extract 56 56) shift1) (concat ((_ extract 63 63) shift1) (concat ((_ extract 70 70) shift1) (concat ((_ extract 77 77) shift1) (concat ((_ extract 84 84) shift1) (concat ((_ extract 91 91) shift1) (concat ((_ extract 98 98) shift1) (concat ((_ extract 105 105) shift1) (concat ((_ extract 112 112) shift1) (concat ((_ extract 119 119) shift1) (concat ((_ extract 126 126) shift1) (concat ((_ extract 133 133) shift1) (concat ((_ extract 140 140) shift1) (concat (_ bv0 1) (concat ((_ extract 154 154) shift1) (concat ((_ extract 161 161) shift1) (_ bv0 3)))))))))))))))))))))))))))))))
(assert (not (= (_ bv0 27) (bitsumhelper (bitsumhelper (bitsumhelper (concat ((_ extract 1 1) shift1) (concat ((_ extract 8 8) shift1) (concat (_ bv0 1) (concat ((_ extract 22 22) shift1) (concat ((_ extract 29 29) shift1) (concat (_ bv0 1) (concat ((_ extract 43 43) shift1) (concat ((_ extract 50 50) shift1) (concat ((_ extract 57 57) shift1) (concat ((_ extract 64 64) shift1) (concat ((_ extract 71 71) shift1) (concat ((_ extract 78 78) shift1) (concat ((_ extract 85 85) shift1) (concat ((_ extract 92 92) shift1) (concat ((_ extract 99 99) shift1) (concat ((_ extract 106 106) shift1) (concat ((_ extract 113 113) shift1) (_ bv0 10))))))))))))))))))))))))
(assert (not (= (_ bv0 27) (bitsumhelper (bitsumhelper (bitsumhelper (bitsumhelper (bitsumhelper (bitsumhelper (concat ((_ extract 2 2) shift1) (concat ((_ extract 9 9) shift1) (concat ((_ extract 16 16) shift1) (concat ((_ extract 23 23) shift1) (concat ((_ extract 30 30) shift1) (concat ((_ extract 37 37) shift1) (concat (_ bv0 1) (concat ((_ extract 51 51) shift1) (concat ((_ extract 58 58) shift1) (concat ((_ extract 65 65) shift1) (concat ((_ extract 72 72) shift1) (concat ((_ extract 79 79) shift1) (concat ((_ extract 86 86) shift1) (concat (_ bv0 1) (concat ((_ extract 100 100) shift1) (concat ((_ extract 107 107) shift1) (concat ((_ extract 114 114) shift1) (concat ((_ extract 121 121) shift1) (concat (_ bv0 1) (concat ((_ extract 135 135) shift1) (concat ((_ extract 142 142) shift1) (concat ((_ extract 149 149) shift1) (concat ((_ extract 156 156) shift1) (concat ((_ extract 163 163) shift1) (concat ((_ extract 170 170) shift1) (concat ((_ extract 177 177) shift1) ((_ extract 184 184) shift1))))))))))))))))))))))))))))))))))))
(assert (not (= (_ bv0 27) (bitsumhelper (bitsumhelper (bitsumhelper (bitsumhelper (bitsumhelper (bitsumhelper (concat ((_ extract 4 4) shift1) (concat ((_ extract 11 11) shift1) (concat ((_ extract 18 18) shift1) (concat ((_ extract 25 25) shift1) (concat ((_ extract 32 32) shift1) (concat ((_ extract 39 39) shift1) (concat ((_ extract 46 46) shift1) (concat ((_ extract 53 53) shift1) (concat ((_ extract 60 60) shift1) (concat ((_ extract 67 67) shift1) (concat ((_ extract 74 74) shift1) (concat ((_ extract 81 81) shift1) (concat ((_ extract 88 88) shift1) (concat ((_ extract 95 95) shift1) (concat (_ bv0 1) (concat ((_ extract 109 109) shift1) (concat ((_ extract 116 116) shift1) (concat ((_ extract 123 123) shift1) (concat ((_ extract 130 130) shift1) (concat ((_ extract 137 137) shift1) (concat ((_ extract 144 144) shift1) (concat (_ bv0 1) (concat ((_ extract 158 158) shift1) (concat ((_ extract 165 165) shift1) (concat ((_ extract 172 172) shift1) (concat ((_ extract 179 179) shift1) ((_ extract 186 186) shift1))))))))))))))))))))))))))))))))))))
(assert (= (_ bv0 27) (bitsumhelper (bitsumhelper (bitsumhelper (bitsumhelper (bitsumhelper (bitsumhelper (bitsumhelper (concat ((_ extract 5 5) shift1) (concat ((_ extract 12 12) shift1) (concat ((_ extract 19 19) shift1) (concat ((_ extract 26 26) shift1) (concat ((_ extract 33 33) shift1) (concat (_ bv0 1) (concat ((_ extract 47 47) shift1) (concat ((_ extract 54 54) shift1) (concat (_ bv0 1) (concat (_ bv0 1) (concat (_ bv0 1) (concat (_ bv0 1) (concat (_ bv0 1) (concat ((_ extract 96 96) shift1) (concat ((_ extract 103 103) shift1) (concat ((_ extract 110 110) shift1) (concat ((_ extract 117 117) shift1) (concat ((_ extract 124 124) shift1) (concat ((_ extract 131 131) shift1) (concat ((_ extract 138 138) shift1) (concat ((_ extract 145 145) shift1) (concat ((_ extract 152 152) shift1) (concat ((_ extract 159 159) shift1) (concat ((_ extract 166 166) shift1) (concat ((_ extract 173 173) shift1) (concat ((_ extract 180 180) shift1) ((_ extract 187 187) shift1))))))))))))))))))))))))))))))))))))
(assert (not (= (_ bv0 27) (bitsumhelper (bitsumhelper (bitsumhelper (bitsumhelper (bitsumhelper (bitsumhelper (concat (_ bv0 1) (concat ((_ extract 13 13) shift1) (concat ((_ extract 20 20) shift1) (concat ((_ extract 27 27) shift1) (concat ((_ extract 34 34) shift1) (concat ((_ extract 41 41) shift1) (concat ((_ extract 48 48) shift1) (concat (_ bv0 1) (concat ((_ extract 62 62) shift1) (concat ((_ extract 69 69) shift1) (concat ((_ extract 76 76) shift1) (concat ((_ extract 83 83) shift1) (concat ((_ extract 90 90) shift1) (concat ((_ extract 97 97) shift1) (concat ((_ extract 104 104) shift1) (concat ((_ extract 111 111) shift1) (concat ((_ extract 118 118) shift1) (concat ((_ extract 125 125) shift1) (concat ((_ extract 132 132) shift1) (concat ((_ extract 139 139) shift1) (concat ((_ extract 146 146) shift1) (_ bv0 6)))))))))))))))))))))))))))))))
(declare-fun workblocks_justTrailingOnes () (_ BitVec 189))
(declare-fun workblocks_withoutTrailingOnes () (_ BitVec 189))
(declare-fun shift2_justTrailingOnes () (_ BitVec 189))
(declare-fun shift3_helper () (_ BitVec 378))
(check-sat)
(exit)
